17,6	0,0	14,8	11,7	0,0	0,0	0,0	0,0	0,0	5,5
18,7	15,5	0,0	18,5	9,8	0,0	0,0	5,5	0,0	0,0
0,0	0,0	12,0	0,0	5,5	13,7	0,0	0,0	10,2	0,0
8,9	0,0	13,0	0,0	0,0	0,0	10,4	0,0	0,0	0,0
0,0	14,8	0,0	15,4	7,8	0,0	0,0	8,5	0,0	0,0
0,0	19,9	10,1	0,0	16,5	12,3	0,0	0,0	14,7	0,0
0,0	11,1	0,0	20,0	0,0	0,0	18,9	0,0	0,0	15,9
6,7	0,0	19,0	0,0	0,0	0,0	0,0	0,0	0,0	13,1
0,0	7,5	0,0	19,7	11,2	0,0	0,0	18,3	0,0	0,0
0,0	0,0	14,4	0,0	0,0	6,1	6,4	0,0	0,0	7,8
0,0	16,0	0,0	0,0	13,7	0,0	16,9	0,0	16,5	11,6
15,0	0,0	7,5	0,0	11,4	0,0	20,0	8,9	18,9	0,0
0,0	8,4	0,0	0,0	0,0	16,3	0,0	12,1	7,8	12,4
17,2	14,5	18,0	0,0	0,0	7,0	0,0	9,6	17,3	0,0
14,6	0,0	7,4	0,0	11,5	10,0	16,4	5,5	0,0	0,0
0,0	17,1	0,0	10,0	0,0	6,5	0,0	6,6	0,0	0,0
7,0	0,0	13,5	9,6	10,8	0,0	0,0	19,1	0,0	0,0
0,0	0,0	7,4	0,0	0,0	6,0	11,0	0,0	16,4	5,1
9,6	0,0	0,0	9,8	10,4	6,1	7,5	8,5	0,0	19,8
0,0	8,7	0,0	15,9	0,0	0,0	18,4	0,0	14,4	18,4
									
4,8	3,8	2,7	2,6	3,6	4,9	4,2	3,1	4,1	3,4
